Bruniera/ragionamento automatico/progetto/benchmark/asp/mid15.lp
start(0).
limit(6).
n(14).
strada(0,1,3).
strada(0,4,9).
strada(0,5,4).
strada(0,6,7).
strada(0,7,15).
strada(0,8,13).
strada(0,11,8).
strada(1,0,15).
strada(1,2,11).
strada(1,3,10).
strada(1,7,1).
strada(2,3,0).
strada(2,4,8).
strada(2,5,12).
strada(2,13,1).
strada(3,0,8).
strada(3,4,14).
strada(3,6,6).
strada(3,12,16).
strada(4,0,14).
strada(4,3,10).
strada(4,5,1).
strada(4,6,18).
strada(4,7,11).
strada(4,12,4).
strada(5,0,3).
strada(5,1,7).
strada(5,2,14).
strada(5,6,4).
strada(5,9,18).
strada(5,10,18).
strada(5,13,19).
strada(6,0,20).
strada(6,1,13).
strada(6,5,11).
strada(6,7,18).
strada(6,9,13).
strada(6,10,15).
strada(6,13,3).
strada(7,0,11).
strada(7,1,11).
strada(7,3,20).
strada(7,5,0).
strada(7,6,13).
strada(7,8,16).
strada(7,9,3).
strada(7,12,9).
strada(8,3,6).
strada(8,6,0).
strada(8,11,11).
strada(8,13,1).
strada(9,6,11).
strada(9,8,11).
strada(9,13,2).
strada(10,0,0).
strada(10,2,19).
strada(10,3,7).
strada(10,4,20).
strada(10,6,7).
strada(10,7,16).
strada(10,11,17).
strada(10,12,14).
strada(10,13,14).
strada(11,3,11).
strada(11,6,7).
strada(11,7,9).
strada(11,8,6).
strada(11,10,15).
strada(11,13,14).
strada(12,2,7).
strada(12,5,20).
strada(12,7,20).
strada(12,8,18).
strada(12,10,14).
strada(13,1,0).
strada(13,2,13).
strada(13,3,14).
strada(13,6,14).
strada(13,8,20).
