Bruniera/ragionamento automatico/progetto/benchmark/minizinc/mid15.dzn
start = 1;
limit = 6;
n = 14;
m=[|-1,3,-1,-1,9,4,7,15,13,-1,-1,8,-1,-1,
|15,-1,11,10,-1,-1,-1,1,-1,-1,-1,-1,-1,-1,
|-1,-1,-1,0,8,12,-1,-1,-1,-1,-1,-1,-1,1,
|8,-1,-1,-1,14,-1,6,-1,-1,-1,-1,-1,16,-1,
|14,-1,-1,10,-1,1,18,11,-1,-1,-1,-1,4,-1,
|3,7,14,-1,-1,-1,4,-1,-1,18,18,-1,-1,19,
|20,13,-1,-1,-1,11,-1,18,-1,13,15,-1,-1,3,
|11,11,-1,20,-1,0,13,-1,16,3,-1,-1,9,-1,
|-1,-1,-1,6,-1,-1,0,-1,-1,-1,-1,11,-1,1,
|-1,-1,-1,-1,-1,-1,11,-1,11,-1,-1,-1,-1,2,
|0,-1,19,7,20,-1,7,16,-1,-1,-1,17,14,14,
|-1,-1,-1,11,-1,-1,7,9,6,-1,15,-1,-1,14,
|-1,-1,7,-1,-1,20,-1,20,18,-1,14,-1,-1,-1,
|-1,0,13,14,-1,-1,14,-1,20,-1,-1,-1,-1,-1,
|]
;